NAME          DCAP_2_4_3_300_SS227
ROWS
 N  OBJ
 L  CON1
 L  CON2
 L  CON3
 L  CON4
 L  CON5
 L  CON6
 L  CON7
 L  CON8
 L  CON9
 L  CON10
 L  CON11
 L  CON12
 E  CON13
 E  CON14
 E  CON15
 E  CON16
 E  CON17
 E  CON18
 E  CON19
 E  CON20
 E  CON21
 E  CON22
 E  CON23
 E  CON24
COLUMNS
    x[1,1]    OBJ       6.180167      CON1      1.000000    
    x[1,1]    CON7      -1.000000     CON8      -1.000000   
    x[1,1]    CON9      -1.000000   
    x[1,2]    OBJ       6.563535      CON2      1.000000    
    x[1,2]    CON8      -1.000000     CON9      -1.000000   
    x[1,3]    OBJ       7.443064      CON3      1.000000    
    x[1,3]    CON9      -1.000000   
    x[2,1]    OBJ       6.732585      CON4      1.000000    
    x[2,1]    CON10     -1.000000     CON11     -1.000000   
    x[2,1]    CON12     -1.000000   
    x[2,2]    OBJ       5.039546      CON5      1.000000    
    x[2,2]    CON11     -1.000000     CON12     -1.000000   
    x[2,3]    OBJ       6.054841      CON6      1.000000    
    x[2,3]    CON12     -1.000000   
    MARKER    'MARKER'                'INTORG'
    u[1,1]    OBJ       48.076654     CON1      -1.000000   
    u[1,2]    OBJ       20.066487     CON2      -1.000000   
    u[1,3]    OBJ       32.230043     CON3      -1.000000   
    u[2,1]    OBJ       49.996186     CON4      -1.000000   
    u[2,2]    OBJ       49.466655     CON5      -1.000000   
    u[2,3]    OBJ       27.484319     CON6      -1.000000   
    y[1,1,1]  OBJ       9.266538      CON7      0.949535    
    y[1,1,1]  CON13     1.000000    
    y[1,1,2]  OBJ       9.769277      CON8      0.734819    
    y[1,1,2]  CON14     1.000000    
    y[1,1,3]  OBJ       6.732100      CON9      0.745384    
    y[1,1,3]  CON15     1.000000    
    y[1,2,1]  OBJ       9.358592      CON7      1.200333    
    y[1,2,1]  CON16     1.000000    
    y[1,2,2]  OBJ       8.876606      CON8      1.249648    
    y[1,2,2]  CON17     1.000000    
    y[1,2,3]  OBJ       6.720610      CON9      1.175706    
    y[1,2,3]  CON18     1.000000    
    y[1,3,1]  OBJ       9.205354      CON7      0.876600    
    y[1,3,1]  CON19     1.000000    
    y[1,3,2]  OBJ       5.889890      CON8      0.790628    
    y[1,3,2]  CON20     1.000000    
    y[1,3,3]  OBJ       6.348694      CON9      1.081545    
    y[1,3,3]  CON21     1.000000    
    y[1,4,1]  OBJ       8.220178      CON7      0.985454    
    y[1,4,1]  CON22     1.000000    
    y[1,4,2]  OBJ       9.919084      CON8      0.523868    
    y[1,4,2]  CON23     1.000000    
    y[1,4,3]  OBJ       7.703654      CON9      1.470455    
    y[1,4,3]  CON24     1.000000    
    y[2,1,1]  OBJ       8.040568      CON10     0.949535    
    y[2,1,1]  CON13     1.000000    
    y[2,1,2]  OBJ       8.231982      CON11     0.734819    
    y[2,1,2]  CON14     1.000000    
    y[2,1,3]  OBJ       6.767891      CON12     0.745384    
    y[2,1,3]  CON15     1.000000    
    y[2,2,1]  OBJ       9.045231      CON10     1.200333    
    y[2,2,1]  CON16     1.000000    
    y[2,2,2]  OBJ       7.729128      CON11     1.249648    
    y[2,2,2]  CON17     1.000000    
    y[2,2,3]  OBJ       9.601498      CON12     1.175706    
    y[2,2,3]  CON18     1.000000    
    y[2,3,1]  OBJ       7.240752      CON10     0.876600    
    y[2,3,1]  CON19     1.000000    
    y[2,3,2]  OBJ       9.115614      CON11     0.790628    
    y[2,3,2]  CON20     1.000000    
    y[2,3,3]  OBJ       7.931418      CON12     1.081545    
    y[2,3,3]  CON21     1.000000    
    y[2,4,1]  OBJ       9.921235      CON10     0.985454    
    y[2,4,1]  CON22     1.000000    
    y[2,4,2]  OBJ       6.692350      CON11     0.523868    
    y[2,4,2]  CON23     1.000000    
    y[2,4,3]  OBJ       6.184419      CON12     1.470455    
    y[2,4,3]  CON24     1.000000    
    z[1,1]    OBJ       959.561988    CON13     1.000000    
    z[1,2]    OBJ       788.256593    CON14     1.000000    
    z[1,3]    OBJ       711.572963    CON15     1.000000    
    z[2,1]    OBJ       804.570783    CON16     1.000000    
    z[2,2]    OBJ       928.454913    CON17     1.000000    
    z[2,3]    OBJ       931.994435    CON18     1.000000    
    z[3,1]    OBJ       625.518455    CON19     1.000000    
    z[3,2]    OBJ       618.560159    CON20     1.000000    
    z[3,3]    OBJ       928.703412    CON21     1.000000    
    z[4,1]    OBJ       813.586546    CON22     1.000000    
    z[4,2]    OBJ       521.521509    CON23     1.000000    
    z[4,3]    OBJ       686.782077    CON24     1.000000    
    MARKER    'MARKER'                 'INTEND'
RHS
    RHS       CON1      -0.000000     CON2      -0.000000   
    RHS       CON3      -0.000000     CON4      -0.000000   
    RHS       CON5      -0.000000     CON6      -0.000000   
    RHS       CON7      -0.000000     CON8      -0.000000   
    RHS       CON9      -0.000000     CON10     -0.000000   
    RHS       CON11     -0.000000     CON12     -0.000000   
    RHS       CON13     1.000000      CON14     1.000000    
    RHS       CON15     1.000000      CON16     1.000000    
    RHS       CON17     1.000000      CON18     1.000000    
    RHS       CON19     1.000000      CON20     1.000000    
    RHS       CON21     1.000000      CON22     1.000000    
    RHS       CON23     1.000000      CON24     1.000000    
BOUNDS
 BV BOUND     u[1,1]  
 BV BOUND     u[1,2]  
 BV BOUND     u[1,3]  
 BV BOUND     u[2,1]  
 BV BOUND     u[2,2]  
 BV BOUND     u[2,3]  
 BV BOUND     y[1,1,1]
 BV BOUND     y[1,1,2]
 BV BOUND     y[1,1,3]
 BV BOUND     y[1,2,1]
 BV BOUND     y[1,2,2]
 BV BOUND     y[1,2,3]
 BV BOUND     y[1,3,1]
 BV BOUND     y[1,3,2]
 BV BOUND     y[1,3,3]
 BV BOUND     y[1,4,1]
 BV BOUND     y[1,4,2]
 BV BOUND     y[1,4,3]
 BV BOUND     y[2,1,1]
 BV BOUND     y[2,1,2]
 BV BOUND     y[2,1,3]
 BV BOUND     y[2,2,1]
 BV BOUND     y[2,2,2]
 BV BOUND     y[2,2,3]
 BV BOUND     y[2,3,1]
 BV BOUND     y[2,3,2]
 BV BOUND     y[2,3,3]
 BV BOUND     y[2,4,1]
 BV BOUND     y[2,4,2]
 BV BOUND     y[2,4,3]
 BV BOUND     z[1,1]  
 BV BOUND     z[1,2]  
 BV BOUND     z[1,3]  
 BV BOUND     z[2,1]  
 BV BOUND     z[2,2]  
 BV BOUND     z[2,3]  
 BV BOUND     z[3,1]  
 BV BOUND     z[3,2]  
 BV BOUND     z[3,3]  
 BV BOUND     z[4,1]  
 BV BOUND     z[4,2]  
 BV BOUND     z[4,3]  
ENDATA
